c *********************************
c * Circuit generated by BenCGen
c *
c * Parity_80
c *
c * Ports with 1 gate(s): 1
c * Ports with 2 gate(s): 80
c * Total gates: 81
c *********************************
p cnf 161 321
1 83 0
-1 -83 0
1 -82 0
83 -82 0
-1 -83 82 0
1 2 -84 0
-1 2 84 0
1 -2 84 0
-1 -2 -84 0
3 4 -85 0
-3 4 85 0
3 -4 85 0
-3 -4 -85 0
5 6 -86 0
-5 6 86 0
5 -6 86 0
-5 -6 -86 0
7 8 -87 0
-7 8 87 0
7 -8 87 0
-7 -8 -87 0
9 10 -88 0
-9 10 88 0
9 -10 88 0
-9 -10 -88 0
11 12 -89 0
-11 12 89 0
11 -12 89 0
-11 -12 -89 0
13 14 -90 0
-13 14 90 0
13 -14 90 0
-13 -14 -90 0
15 16 -91 0
-15 16 91 0
15 -16 91 0
-15 -16 -91 0
17 18 -92 0
-17 18 92 0
17 -18 92 0
-17 -18 -92 0
19 20 -93 0
-19 20 93 0
19 -20 93 0
-19 -20 -93 0
21 22 -94 0
-21 22 94 0
21 -22 94 0
-21 -22 -94 0
23 24 -95 0
-23 24 95 0
23 -24 95 0
-23 -24 -95 0
25 26 -96 0
-25 26 96 0
25 -26 96 0
-25 -26 -96 0
27 28 -97 0
-27 28 97 0
27 -28 97 0
-27 -28 -97 0
29 30 -98 0
-29 30 98 0
29 -30 98 0
-29 -30 -98 0
31 32 -99 0
-31 32 99 0
31 -32 99 0
-31 -32 -99 0
33 34 -100 0
-33 34 100 0
33 -34 100 0
-33 -34 -100 0
35 36 -101 0
-35 36 101 0
35 -36 101 0
-35 -36 -101 0
37 38 -102 0
-37 38 102 0
37 -38 102 0
-37 -38 -102 0
39 40 -103 0
-39 40 103 0
39 -40 103 0
-39 -40 -103 0
41 42 -104 0
-41 42 104 0
41 -42 104 0
-41 -42 -104 0
43 44 -105 0
-43 44 105 0
43 -44 105 0
-43 -44 -105 0
45 46 -106 0
-45 46 106 0
45 -46 106 0
-45 -46 -106 0
47 48 -107 0
-47 48 107 0
47 -48 107 0
-47 -48 -107 0
49 50 -108 0
-49 50 108 0
49 -50 108 0
-49 -50 -108 0
51 52 -109 0
-51 52 109 0
51 -52 109 0
-51 -52 -109 0
53 54 -110 0
-53 54 110 0
53 -54 110 0
-53 -54 -110 0
55 56 -111 0
-55 56 111 0
55 -56 111 0
-55 -56 -111 0
57 58 -112 0
-57 58 112 0
57 -58 112 0
-57 -58 -112 0
59 60 -113 0
-59 60 113 0
59 -60 113 0
-59 -60 -113 0
61 62 -114 0
-61 62 114 0
61 -62 114 0
-61 -62 -114 0
63 64 -115 0
-63 64 115 0
63 -64 115 0
-63 -64 -115 0
65 66 -116 0
-65 66 116 0
65 -66 116 0
-65 -66 -116 0
67 68 -117 0
-67 68 117 0
67 -68 117 0
-67 -68 -117 0
69 70 -118 0
-69 70 118 0
69 -70 118 0
-69 -70 -118 0
71 72 -119 0
-71 72 119 0
71 -72 119 0
-71 -72 -119 0
73 74 -120 0
-73 74 120 0
73 -74 120 0
-73 -74 -120 0
75 76 -121 0
-75 76 121 0
75 -76 121 0
-75 -76 -121 0
77 78 -122 0
-77 78 122 0
77 -78 122 0
-77 -78 -122 0
79 80 -123 0
-79 80 123 0
79 -80 123 0
-79 -80 -123 0
84 85 -124 0
-84 85 124 0
84 -85 124 0
-84 -85 -124 0
86 87 -125 0
-86 87 125 0
86 -87 125 0
-86 -87 -125 0
88 89 -126 0
-88 89 126 0
88 -89 126 0
-88 -89 -126 0
90 91 -127 0
-90 91 127 0
90 -91 127 0
-90 -91 -127 0
92 93 -128 0
-92 93 128 0
92 -93 128 0
-92 -93 -128 0
94 95 -129 0
-94 95 129 0
94 -95 129 0
-94 -95 -129 0
96 97 -130 0
-96 97 130 0
96 -97 130 0
-96 -97 -130 0
98 99 -131 0
-98 99 131 0
98 -99 131 0
-98 -99 -131 0
100 101 -132 0
-100 101 132 0
100 -101 132 0
-100 -101 -132 0
102 103 -133 0
-102 103 133 0
102 -103 133 0
-102 -103 -133 0
104 105 -134 0
-104 105 134 0
104 -105 134 0
-104 -105 -134 0
106 107 -135 0
-106 107 135 0
106 -107 135 0
-106 -107 -135 0
108 109 -136 0
-108 109 136 0
108 -109 136 0
-108 -109 -136 0
110 111 -137 0
-110 111 137 0
110 -111 137 0
-110 -111 -137 0
112 113 -138 0
-112 113 138 0
112 -113 138 0
-112 -113 -138 0
114 115 -139 0
-114 115 139 0
114 -115 139 0
-114 -115 -139 0
116 117 -140 0
-116 117 140 0
116 -117 140 0
-116 -117 -140 0
118 119 -141 0
-118 119 141 0
118 -119 141 0
-118 -119 -141 0
120 121 -142 0
-120 121 142 0
120 -121 142 0
-120 -121 -142 0
122 123 -143 0
-122 123 143 0
122 -123 143 0
-122 -123 -143 0
124 125 -144 0
-124 125 144 0
124 -125 144 0
-124 -125 -144 0
126 127 -145 0
-126 127 145 0
126 -127 145 0
-126 -127 -145 0
128 129 -146 0
-128 129 146 0
128 -129 146 0
-128 -129 -146 0
130 131 -147 0
-130 131 147 0
130 -131 147 0
-130 -131 -147 0
132 133 -148 0
-132 133 148 0
132 -133 148 0
-132 -133 -148 0
134 135 -149 0
-134 135 149 0
134 -135 149 0
-134 -135 -149 0
136 137 -150 0
-136 137 150 0
136 -137 150 0
-136 -137 -150 0
138 139 -151 0
-138 139 151 0
138 -139 151 0
-138 -139 -151 0
140 141 -152 0
-140 141 152 0
140 -141 152 0
-140 -141 -152 0
142 143 -153 0
-142 143 153 0
142 -143 153 0
-142 -143 -153 0
144 145 -154 0
-144 145 154 0
144 -145 154 0
-144 -145 -154 0
146 147 -155 0
-146 147 155 0
146 -147 155 0
-146 -147 -155 0
148 149 -156 0
-148 149 156 0
148 -149 156 0
-148 -149 -156 0
150 151 -157 0
-150 151 157 0
150 -151 157 0
-150 -151 -157 0
152 153 -158 0
-152 153 158 0
152 -153 158 0
-152 -153 -158 0
154 155 -159 0
-154 155 159 0
154 -155 159 0
-154 -155 -159 0
156 157 -160 0
-156 157 160 0
156 -157 160 0
-156 -157 -160 0
159 160 -161 0
-159 160 161 0
159 -160 161 0
-159 -160 -161 0
161 158 -81 0
-161 158 81 0
161 -158 81 0
-161 -158 -81 0
